 200 53 
 74 53 10 51 46 48 54 69 26 96 8 97 
 27 4 67 57 7 4 36 23 10 88 94 64 
 29 47 73 86 72 68 70 40 95 53 90 27 
 86 14 2 4 91 44 75 59 51 13 91 95 
 63 37 79 13 58 
 4 
 4 19 28 43 
 26 
 3 4 7 8 12 14 15 16 17 19 21 24 
 25 29 30 32 33 37 38 43 45 46 47 48 
 50 53 
 36 
 1 3 4 5 6 8 9 10 12 14 15 16 
 17 19 21 22 24 25 28 29 31 32 33 35 
 36 39 41 42 43 44 45 47 48 49 50 52 
 16 
 6 12 13 14 18 19 22 23 26 27 28 40 
 41 43 47 53 
 34 
 1 2 4 6 8 9 10 12 15 16 19 22 
 25 26 27 28 31 33 34 35 36 37 38 39 
 40 41 42 44 46 48 49 50 51 52 
 12 
 2 15 16 22 26 28 40 43 45 46 47 52 
 42 
 1 2 3 4 5 6 7 10 11 13 14 15 
 16 18 19 20 21 22 23 24 25 26 28 29 
 30 32 33 34 35 39 40 41 42 43 44 45 
 47 48 50 51 52 53 
 7 
 24 27 30 33 34 40 41 
 52 
 1 2 3 4 5 6 7 8 9 10 11 12 
 13 14 15 16 17 18 19 20 21 22 23 24 
 25 26 27 28 29 30 31 32 33 34 35 36 
 37 38 39 40 41 42 43 44 45 46 47 48 
 49 50 51 53 
 24 
 2 4 5 7 11 18 19 20 21 22 26 29 
 30 31 32 34 35 42 43 44 45 47 52 53 
 4 
 6 11 14 41 
 8 
 7 15 23 32 35 38 44 50 
 53 
 1 2 3 4 5 6 7 8 9 10 11 12 
 13 14 15 16 17 18 19 20 21 22 23 24 
 25 26 27 28 29 30 31 32 33 34 35 36 
 37 38 39 40 41 42 43 44 45 46 47 48 
 49 50 51 52 53 
 28 
 1 3 6 7 8 9 10 11 13 15 16 17 
 20 27 28 29 36 37 38 39 41 42 45 48 
 50 51 52 53 
 41 
 1 2 3 4 6 8 10 11 13 14 15 16 
 17 19 20 21 22 23 25 26 27 28 29 30 
 31 32 33 34 35 38 40 41 42 43 44 45 
 46 48 49 50 51 
 43 
 1 2 6 7 8 9 10 12 13 15 16 18 
 19 20 22 23 24 25 26 27 28 29 30 31 
 32 33 34 35 36 37 39 40 41 43 44 45 
 46 48 49 50 51 52 53 
 31 
 2 4 7 8 10 13 15 18 19 21 24 25 
 26 27 31 32 33 34 35 37 38 39 40 43 
 45 46 47 48 49 51 52 
 30 
 2 3 4 7 8 10 11 14 15 18 19 22 
 23 25 27 29 30 31 32 33 34 36 40 43 
 46 48 50 51 52 53 
 14 
 7 11 19 22 25 27 29 32 35 41 44 46 
 47 49 
 12 
 7 14 21 24 27 29 32 33 34 37 50 51 
 49 
 1 2 3 4 5 6 7 9 10 11 12 14 
 15 16 17 18 19 20 21 22 23 25 26 27 
 28 29 30 31 32 33 34 35 36 37 38 39 
 40 41 42 43 44 45 46 47 48 50 51 52 
 53 
 39 
 1 2 3 5 6 7 8 9 10 11 12 13 
 14 16 17 19 20 23 24 27 28 31 32 33 
 34 36 37 40 42 43 44 45 46 48 49 50 
 51 52 53 
 16 
 3 7 9 10 17 23 26 28 29 30 37 38 
 40 42 43 46 
 45 
 1 2 4 5 7 8 9 10 11 13 14 16 
 17 18 19 20 21 22 24 25 26 27 28 29 
 30 31 32 33 34 35 36 37 38 39 40 42 
 43 44 45 46 48 49 50 51 52 
 50 
 1 2 3 4 6 7 8 9 10 11 12 13 
 14 15 16 17 18 19 20 21 22 23 24 25 
 26 27 28 30 31 32 33 35 36 37 38 39 
 40 41 42 43 44 45 46 47 48 49 50 51 
 52 53 
 46 
 1 2 4 5 7 8 9 13 14 16 17 18 
 19 21 22 23 24 25 26 27 28 29 30 31 
 32 33 34 35 36 37 38 39 40 41 42 43 
 44 45 46 47 48 49 50 51 52 53 
 52 
 1 2 3 4 5 6 7 8 9 10 11 12 
 13 14 15 16 17 18 19 20 21 22 23 24 
 25 26 27 28 29 30 32 33 34 35 36 37 
 38 39 40 41 42 43 44 45 46 47 48 49 
 50 51 52 53 
 41 
 1 2 3 4 5 6 7 8 9 11 12 13 
 14 15 16 17 18 19 20 23 24 25 27 28 
 29 30 33 34 36 37 38 39 40 41 42 43 
 44 46 47 49 51 
 44 
 1 2 3 4 5 6 8 9 11 12 13 14 
 15 16 17 18 19 20 21 22 23 24 25 26 
 27 28 29 30 31 32 33 34 35 37 38 39 
 40 41 43 47 48 49 51 52 
 11 
 1 4 11 12 14 17 21 32 40 48 51 
 32 
 1 2 3 7 8 9 10 11 12 15 17 18 
 19 21 22 23 24 25 28 29 33 36 37 38 
 39 40 42 43 45 46 49 53 
 45 
 1 2 3 4 5 6 8 9 10 11 12 13 
 14 15 16 17 18 19 20 22 24 25 26 27 
 28 29 30 31 32 33 35 36 37 38 39 40 
 42 44 45 46 47 48 50 51 52 
 16 
 3 5 8 9 10 11 14 19 26 27 30 32 
 40 42 50 52 
 21 
 1 3 5 8 9 10 12 13 16 19 20 22 
 28 31 34 45 46 47 50 51 52 
 46 
 2 4 5 6 7 8 9 10 11 12 14 15 
 16 17 19 20 21 22 24 26 27 28 29 30 
 31 32 33 34 35 36 37 38 39 40 41 42 
 43 44 45 46 47 48 49 50 51 53 
 39 
 1 2 3 5 6 7 8 10 11 14 15 16 
 17 21 22 23 24 25 26 27 28 29 30 31 
 32 34 35 36 38 39 40 41 45 46 48 49 
 51 52 53 
 39 
 1 2 3 5 6 7 9 10 11 13 14 15 
 18 19 20 21 22 23 24 27 28 29 32 33 
 34 35 37 38 39 40 41 42 43 45 47 49 
 50 51 52 
 12 
 6 11 14 16 24 38 42 44 45 48 49 53 
 27 
 2 3 4 6 7 12 14 15 18 20 22 23 
 25 26 27 30 31 32 34 39 40 42 43 46 
 50 51 52 
 8 
 5 6 9 10 23 24 34 47 
 37 
 1 3 4 5 6 7 13 15 16 17 19 20 
 21 22 23 25 26 27 28 29 30 31 34 36 
 37 39 40 42 43 44 45 46 48 50 51 52 
 53 
 28 
 2 3 4 6 8 10 12 13 15 16 18 20 
 22 24 26 30 31 34 38 42 44 45 46 47 
 48 49 50 52 
 26 
 1 2 5 7 9 11 13 14 23 24 25 29 
 30 32 34 35 37 38 39 40 42 43 46 48 
 49 53 
 42 
 1 2 3 4 5 8 9 10 11 12 13 15 
 16 19 20 22 23 25 26 29 30 31 32 33 
 34 36 37 39 40 41 42 43 44 45 46 47 
 48 49 50 51 52 53 
 12 
 4 5 14 15 17 19 20 26 31 44 48 53 
 11 
 3 5 15 22 24 27 28 43 49 51 52 
 6 
 12 16 27 34 44 53 
 44 
 1 2 3 4 6 7 8 9 11 13 14 16 
 17 18 19 20 22 23 24 25 26 27 28 30 
 31 32 33 34 35 36 37 38 40 41 42 43 
 44 45 47 48 49 50 51 53 
 12 
 2 4 5 17 23 24 26 32 35 45 47 48 
 7 
 1 2 6 8 12 45 47 
 38 
 1 2 3 4 5 6 7 8 9 10 12 15 
 16 17 18 20 22 23 25 26 27 28 30 31 
 33 34 35 36 37 41 42 43 45 46 48 49 
 51 53 
 28 
 1 4 11 12 13 15 18 21 23 24 25 27 
 28 29 30 31 32 33 34 38 40 41 42 44 
 47 48 51 53 
 48 
 1 2 3 4 5 8 9 10 11 12 13 14 
 15 16 17 18 19 20 21 22 23 24 25 26 
 28 29 30 31 32 33 35 36 37 38 39 40 
 42 43 44 45 46 47 48 49 50 51 52 53 
 46 
 1 2 4 5 6 7 8 9 10 11 12 13 
 14 16 17 18 19 20 21 22 23 24 25 26 
 27 28 29 30 32 34 35 36 37 39 40 41 
 42 43 44 46 47 48 49 51 52 53 
 5 
 3 16 17 22 30 
 20 
 2 4 9 11 15 16 21 22 23 27 34 36 
 37 40 42 46 48 50 52 53 
 26 
 1 3 4 6 8 11 13 14 15 17 22 24 
 27 28 32 33 34 35 37 39 41 42 46 47 
 48 49 
 51 
 1 2 3 4 5 8 9 10 11 12 13 14 
 15 16 17 18 19 20 21 22 23 24 25 26 
 27 28 29 30 31 32 33 34 35 36 37 38 
 39 40 41 42 43 44 45 46 47 48 49 50 
 51 52 53 
 8 
 16 21 25 36 46 47 48 53 
 4 
 15 26 43 46 
 20 
 5 10 11 13 15 16 17 18 19 24 27 28 
 30 33 34 35 36 37 40 53 
 26 
 2 4 5 10 16 19 20 21 23 24 25 28 
 29 31 32 33 37 40 41 44 45 46 47 50 
 51 53 
 28 
 1 2 6 7 8 12 13 17 19 23 24 28 
 29 30 31 32 33 34 37 38 39 42 43 44 
 45 47 51 52 
 36 
 1 2 3 4 6 7 8 9 10 11 13 14 
 15 17 18 20 22 24 27 28 33 34 35 36 
 37 38 39 40 42 43 44 45 47 48 50 51 
 3 
 30 32 53 
 19 
 1 4 5 11 16 20 21 22 23 24 27 28 
 32 36 45 46 49 50 53 
 19 
 1 2 11 13 15 16 21 25 27 30 31 32 
 38 41 46 47 48 49 53 
 30 
 1 3 4 5 7 9 10 11 12 13 14 17 
 20 21 23 26 28 31 34 36 39 40 41 43 
 44 45 47 49 50 53 
 11 
 1 5 6 12 18 25 27 29 41 44 46 
 21 
 1 5 6 10 11 14 16 18 19 21 22 26 
 27 32 37 38 41 42 47 50 51 
 20 
 2 3 4 9 16 17 18 21 22 23 24 26 
 27 30 34 38 41 47 49 51 
 28 
 6 7 8 9 10 12 13 18 20 21 23 24 
 25 28 34 36 37 38 40 41 43 44 45 46 
 49 50 51 53 
 8 
 18 19 26 32 33 35 43 49 
 16 
 4 5 9 12 17 20 23 25 28 35 36 39 
 40 43 51 52 
 44 
 1 3 4 7 9 10 11 12 13 14 15 16 
 17 18 19 20 21 22 23 24 25 27 28 30 
 31 32 33 34 36 37 38 39 40 41 42 43 
 44 45 46 47 48 49 52 53 
 29 
 1 2 3 4 7 8 12 13 14 16 19 21 
 23 24 25 26 27 30 31 32 35 39 40 41 
 44 45 47 50 52 
 28 
 1 4 9 10 11 12 13 16 17 20 22 23 
 26 28 30 31 32 33 35 39 40 42 43 44 
 46 48 49 53 
 35 
 1 2 3 6 8 9 10 11 12 13 14 19 
 20 22 23 24 25 30 31 32 33 35 36 37 
 38 39 40 42 43 44 45 46 48 50 53 
 30 
 2 3 4 5 6 7 8 9 10 11 15 19 
 20 22 23 25 27 31 36 40 41 42 43 44 
 45 46 47 50 51 52 
 21 
 3 7 9 10 12 14 16 18 19 21 22 25 
 29 31 32 33 36 38 39 41 46 
 29 
 4 8 9 11 13 17 18 19 21 22 24 26 
 27 29 30 32 33 34 37 38 39 40 42 43 
 46 48 51 52 53 
 50 
 1 2 3 4 5 7 8 9 10 11 12 13 
 15 16 17 18 19 20 21 22 23 24 25 26 
 27 28 29 30 31 32 33 34 35 36 37 38 
 39 41 42 43 44 45 46 47 48 49 50 51 
 52 53 
 6 
 2 9 10 23 34 36 
 43 
 1 2 3 4 5 6 7 8 11 12 13 14 
 15 18 19 20 21 22 23 24 25 27 28 30 
 31 32 33 34 36 37 38 40 41 42 43 44 
 46 47 49 50 51 52 53 
 15 
 8 9 11 12 15 21 22 24 26 28 32 35 
 39 40 42 
 29 
 1 2 3 6 7 15 16 17 20 21 22 23 
 25 28 29 31 34 37 38 39 40 42 43 45 
 46 47 50 52 53 
 15 
 2 4 6 8 9 14 15 17 19 21 32 33 
 41 45 53 
 26 
 1 2 3 7 8 9 11 13 16 17 18 19 
 25 26 28 29 31 32 34 37 38 41 42 46 
 48 50 
 13 
 3 10 13 23 24 31 36 37 38 43 44 46 
 52 
 47 
 1 2 3 4 5 6 7 8 9 11 12 13 
 14 15 16 19 20 21 22 23 24 25 26 27 
 29 30 31 32 33 34 35 36 38 39 40 41 
 42 43 44 45 46 47 48 49 51 52 53 
 46 
 1 2 3 4 5 6 7 8 9 10 11 12 
 13 14 15 17 19 20 21 22 24 25 26 27 
 28 29 30 31 32 33 34 35 36 37 38 39 
 40 41 43 44 45 47 48 51 52 53 
 17 
 1 2 3 4 5 7 8 11 13 17 20 24 
 28 32 34 45 51 
 32 
 2 3 4 7 8 10 11 12 13 16 19 21 
 22 23 24 25 27 31 33 37 38 40 43 44 
 45 46 47 48 49 51 52 53 
 16 
 7 11 13 14 16 21 22 27 28 30 31 32 
 39 44 45 46 
 14 
 4 7 8 14 18 22 23 24 25 30 36 49 
 51 53 
 7 
 4 8 10 21 28 29 42 
 27 
 3 4 5 8 9 11 13 16 18 19 21 22 
 24 25 26 29 32 33 35 37 39 40 41 43 
 44 45 47 
 9 
 9 11 21 26 35 38 46 51 53 
 42 
 1 2 3 4 6 8 10 11 13 14 15 17 
 18 19 20 21 22 24 25 27 28 29 30 32 
 34 35 36 37 38 39 40 41 42 43 44 45 
 46 47 48 50 52 53 
 21 
 1 4 8 10 11 13 18 21 24 25 26 28 
 30 32 35 38 40 42 43 51 52 
 2 
 35 52 
 49 
 1 2 3 4 5 6 8 9 10 11 12 13 
 14 16 18 19 20 21 22 23 24 25 26 27 
 28 29 30 31 32 33 34 35 36 37 38 39 
 40 41 42 44 45 46 47 48 49 50 51 52 
 53 
 39 
 1 4 5 6 7 9 10 11 12 13 14 16 
 17 18 19 20 21 22 24 25 26 27 28 29 
 32 33 34 35 38 39 40 41 42 46 49 50 
 51 52 53 
 43 
 1 2 4 5 6 7 8 9 10 11 12 15 
 17 19 20 21 23 26 27 28 29 30 31 32 
 33 34 35 36 38 39 40 41 42 43 44 45 
 46 47 48 49 50 52 53 
 28 
 1 2 3 4 6 10 11 13 17 18 19 20 
 23 24 25 26 27 29 30 33 40 41 44 47 
 48 50 51 52 
 19 
 1 2 6 8 12 14 17 18 20 21 25 30 
 35 37 41 45 49 51 53 
 47 
 1 2 3 4 5 6 7 8 10 11 12 13 
 14 15 16 17 18 19 20 21 22 23 24 25 
 27 28 29 30 31 32 33 34 35 38 39 40 
 41 42 43 44 45 46 47 49 50 52 53 
 20 
 2 3 5 6 12 19 23 25 27 31 32 33 
 34 37 39 41 42 43 44 45 
 19 
 1 4 5 6 7 9 10 11 12 16 19 20 
 21 33 36 40 41 44 51 
 3 
 6 25 38 
 46 
 1 2 3 4 5 6 7 8 9 10 11 13 
 15 16 17 18 19 20 21 22 23 25 26 27 
 28 29 31 32 33 34 35 36 37 38 39 40 
 41 42 43 44 45 47 48 49 52 53 
 9 
 5 8 18 23 29 43 48 52 53 
 14 
 7 8 10 13 15 19 21 23 27 35 37 46 
 49 51 
 19 
 5 7 13 14 15 18 20 24 28 34 35 37 
 38 45 47 48 49 52 53 
 48 
 1 2 3 4 5 6 7 8 9 10 11 13 
 15 16 17 18 19 20 21 22 23 24 25 27 
 29 30 31 32 33 34 35 36 37 38 39 40 
 41 42 43 44 45 46 47 48 50 51 52 53 
 50 
 1 3 4 5 6 7 8 9 10 11 12 13 
 14 15 16 17 18 19 20 21 22 23 24 26 
 27 28 29 30 31 32 33 34 36 37 38 39 
 40 41 42 43 44 45 46 47 48 49 50 51 
 52 53 
 31 
 2 5 6 7 8 9 10 13 14 15 16 17 
 18 19 21 22 23 25 33 34 35 36 37 39 
 41 42 45 48 51 52 53 
 8 
 9 16 19 21 33 34 43 47 
 53 
 1 2 3 4 5 6 7 8 9 10 11 12 
 13 14 15 16 17 18 19 20 21 22 23 24 
 25 26 27 28 29 30 31 32 33 34 35 36 
 37 38 39 40 41 42 43 44 45 46 47 48 
 49 50 51 52 53 
 26 
 1 2 4 5 6 7 8 9 10 12 13 14 
 16 19 23 27 32 33 38 39 41 42 43 44 
 49 50 
 35 
 1 4 6 9 10 11 12 13 16 17 18 19 
 20 24 27 28 30 31 32 33 35 36 37 40 
 41 43 44 45 46 47 48 50 51 52 53 
 21 
 2 6 7 9 11 12 13 17 18 20 22 23 
 26 27 28 29 30 36 44 47 53 
 33 
 2 3 4 5 6 8 10 12 15 17 18 19 
 20 23 24 25 27 29 30 31 32 33 37 38 
 40 42 43 44 46 47 51 52 53 
 17 
 3 5 9 13 16 17 18 26 28 34 35 37 
 40 42 43 49 51 
 42 
 1 2 3 4 5 6 7 8 9 11 12 13 
 14 15 16 17 18 20 22 25 27 29 31 32 
 33 34 35 36 37 38 39 40 42 43 44 45 
 46 47 48 50 52 53 
 16 
 3 5 7 13 16 18 19 24 25 37 39 40 
 41 46 51 52 
 4 
 14 22 25 34 
 9 
 1 11 16 20 24 34 35 37 39 
 23 
 4 5 6 8 17 20 21 25 26 27 28 29 
 30 31 32 36 37 39 40 43 46 52 53 
 28 
 1 4 5 9 11 13 17 18 20 22 24 25 
 27 28 32 33 36 38 40 41 42 43 45 47 
 48 49 51 52 
 16 
 4 11 12 14 16 18 21 25 26 30 31 39 
 41 43 46 50 
 3 
 14 36 41 
 40 
 1 4 5 6 7 8 9 10 12 13 14 16 
 17 18 20 22 23 24 25 26 27 29 30 31 
 33 34 35 37 38 39 40 41 45 46 47 48 
 49 50 51 52 
 12 
 4 5 7 15 17 19 38 40 42 43 46 49 
 41 
 1 2 3 5 6 7 8 11 12 13 14 15 
 16 17 18 20 24 25 26 28 29 30 31 32 
 33 34 35 36 37 38 39 41 42 43 44 45 
 49 50 51 52 53 
 21 
 1 2 3 4 5 10 11 16 18 21 24 25 
 37 38 39 40 41 44 48 49 52 
 7 
 19 31 32 33 42 49 51 
 46 
 1 2 3 4 6 7 8 9 10 12 13 14 
 15 16 18 19 20 22 23 24 25 27 28 29 
 30 31 32 33 34 35 36 37 38 39 40 41 
 42 43 44 45 47 48 49 50 52 53 
 3 
 8 14 53 
 39 
 2 3 4 5 6 7 8 9 14 17 18 20 
 21 22 23 24 26 27 28 30 31 32 33 34 
 35 37 39 40 42 43 45 46 47 48 49 50 
 51 52 53 
 49 
 1 2 3 4 5 6 7 8 9 10 11 12 
 13 14 15 17 18 19 20 21 22 23 24 25 
 27 28 29 30 31 32 33 34 35 36 37 38 
 39 40 41 42 43 44 45 47 49 50 51 52 
 53 
 26 
 6 10 11 13 15 17 18 24 25 26 27 29 
 30 32 33 36 37 38 39 40 41 45 47 50 
 51 52 
 36 
 2 5 6 7 8 9 10 14 15 18 19 20 
 22 23 24 25 26 27 30 31 32 33 35 37 
 39 40 41 42 43 44 45 46 47 48 52 53 
 10 
 3 7 15 17 19 21 23 24 31 52 
 28 
 2 5 6 7 9 10 13 14 15 18 20 21 
 22 24 25 26 27 31 33 34 38 40 42 48 
 49 50 52 53 
 51 
 1 2 3 4 5 6 7 8 9 10 11 12 
 13 14 15 16 17 19 20 21 22 23 24 25 
 26 27 28 29 30 31 32 33 34 35 36 37 
 38 39 40 41 42 43 45 46 47 48 49 50 
 51 52 53 
 22 
 4 6 8 9 11 12 13 18 22 26 27 32 
 33 34 38 39 41 42 43 47 49 52 
 50 
 1 2 3 4 5 6 7 8 9 11 12 13 
 14 15 16 17 18 19 20 21 22 23 24 25 
 26 27 28 29 30 31 33 34 35 36 37 38 
 39 40 42 43 44 45 46 47 48 49 50 51 
 52 53 
 12 
 3 4 11 17 28 32 37 42 44 46 49 53 
 29 
 1 2 4 5 8 9 10 12 15 16 19 21 
 23 24 25 26 29 31 32 33 34 35 37 39 
 43 46 49 50 52 
 17 
 1 11 16 17 20 24 25 27 29 30 31 32 
 35 37 46 52 53 
 27 
 1 2 3 4 5 6 10 11 12 15 17 19 
 25 26 27 29 33 34 35 37 39 41 42 47 
 49 52 53 
 28 
 5 7 8 14 16 17 20 21 22 23 26 27 
 28 32 33 34 35 36 37 38 41 42 44 46 
 47 48 52 53 
 40 
 1 3 4 5 8 9 11 12 14 15 16 18 
 19 20 21 22 23 25 26 27 28 31 32 33 
 34 35 36 37 38 39 40 41 42 44 45 46 
 49 50 51 53 
 13 
 2 3 5 8 18 23 26 33 34 35 36 39 
 48 
 34 
 1 2 6 7 8 9 10 12 13 14 15 17 
 19 20 21 23 24 28 29 30 31 33 35 36 
 37 40 44 45 46 48 50 51 52 53 
 24 
 5 7 10 13 14 18 19 20 21 24 25 29 
 33 34 35 36 37 38 39 40 44 47 49 53 
 50 
 1 2 3 4 5 6 7 8 10 11 12 13 
 14 15 16 17 18 19 20 21 22 23 24 25 
 26 27 28 29 31 32 33 34 35 36 37 38 
 39 40 41 42 43 44 45 46 47 48 49 51 
 52 53 
 6 
 5 17 31 34 36 42 
 39 
 1 2 3 4 5 7 9 10 11 12 13 14 
 15 16 17 18 19 20 22 23 24 27 30 31 
 32 33 34 35 36 37 38 39 40 46 48 49 
 51 52 53 
 13 
 5 9 19 21 22 23 24 27 35 41 46 51 
 53 
 14 
 6 11 12 14 19 22 23 34 40 42 43 48 
 49 53 
 13 
 2 8 20 25 28 34 35 38 40 44 49 50 
 52 
 47 
 1 2 3 4 5 7 8 9 10 11 13 14 
 15 17 18 19 20 21 22 23 24 25 26 27 
 28 29 30 31 33 34 35 36 37 38 39 40 
 42 43 44 45 46 47 48 50 51 52 53 
 14 
 1 3 4 6 9 13 15 19 27 38 40 42 
 47 53 
 32 
 1 3 5 6 8 10 11 13 14 16 17 18 
 20 23 24 26 29 30 33 34 35 36 37 38 
 39 40 43 45 48 49 50 52 
 37 
 2 3 4 5 8 9 10 12 13 14 15 16 
 17 18 19 21 22 23 24 25 26 28 29 31 
 32 33 34 36 38 41 42 45 46 47 49 52 
 53 
 3 
 25 28 41 
 8 
 2 11 16 17 27 28 38 52 
 10 
 1 6 7 9 13 15 24 28 42 47 
 49 
 1 2 3 4 5 6 7 8 9 10 11 12 
 13 14 15 16 17 18 19 20 21 22 23 24 
 25 27 28 29 30 31 32 33 34 37 38 39 
 40 41 42 43 44 45 46 47 49 50 51 52 
 53 
 42 
 1 2 3 5 6 7 8 10 11 12 13 14 
 15 16 20 21 22 23 24 25 26 27 28 29 
 33 34 35 36 37 38 40 41 42 44 45 46 
 47 48 50 51 52 53 
 43 
 1 2 3 5 6 7 8 9 10 11 12 13 
 14 15 16 18 19 21 22 23 24 25 26 27 
 28 30 31 32 33 35 38 39 41 42 43 44 
 45 46 47 48 49 50 51 
 28 
 1 3 5 6 8 14 17 18 19 20 21 22 
 25 26 33 34 35 36 37 39 41 42 43 45 
 48 50 52 53 
 51 
 1 2 3 4 5 6 7 8 9 10 11 12 
 13 14 15 16 17 18 19 20 21 22 24 25 
 26 27 29 30 31 32 33 34 35 36 37 38 
 39 40 41 42 43 44 45 46 47 48 49 50 
 51 52 53 
 11 
 8 9 10 12 18 22 31 34 36 38 43 
 52 
 1 2 3 4 5 6 7 8 9 10 11 12 
 13 14 15 16 17 18 19 20 21 22 23 24 
 25 26 27 28 29 30 31 32 33 34 35 36 
 37 38 39 40 41 42 44 45 46 47 48 49 
 50 51 52 53 
 30 
 3 4 5 6 9 10 12 13 15 21 22 23 
 24 26 27 28 32 33 34 35 36 37 38 41 
 42 44 45 46 48 53 
 37 
 1 3 5 7 9 11 13 15 17 18 19 20 
 22 25 26 27 28 29 30 31 32 33 34 36 
 37 39 40 41 42 43 44 47 48 49 50 52 
 53 
 21 
 1 3 4 5 10 12 13 14 15 16 19 22 
 26 28 30 33 34 36 38 39 48 
 7 
 1 19 22 27 41 52 53 
 39 
 2 3 4 6 8 9 10 12 14 15 16 17 
 18 19 22 23 24 26 27 29 30 31 32 34 
 35 36 37 38 39 40 41 43 44 45 48 49 
 51 52 53 
 32 
 2 3 4 5 6 9 10 11 12 15 17 19 
 20 22 23 26 28 29 31 32 36 39 40 42 
 43 46 47 48 50 51 52 53 
 19 
 4 7 11 12 13 15 16 17 20 29 30 33 
 36 37 38 43 46 50 52 
 39 
 1 2 3 4 5 8 9 11 12 13 14 15 
 18 21 22 23 24 25 27 28 29 30 32 33 
 35 36 37 38 41 42 43 46 47 48 49 50 
 51 52 53 
 2 
 8 29 
 5 
 6 28 44 49 52 
 33 
 1 2 3 4 7 8 9 10 11 12 13 14 
 16 21 22 23 24 26 27 28 31 37 38 39 
 41 42 43 44 45 47 49 50 52 
 52 
 1 2 3 4 5 6 7 8 9 10 11 12 
 13 14 15 16 17 18 19 20 21 22 23 24 
 25 26 27 28 29 30 31 32 33 34 36 37 
 38 39 40 41 42 43 44 45 46 47 48 49 
 50 51 52 53 
 33 
 2 3 4 6 7 9 11 12 13 14 17 18 
 19 21 22 23 25 30 32 33 34 35 37 38 
 39 40 41 42 43 47 49 50 51 
 11 
 2 4 10 18 19 23 25 34 36 37 51 
 26 
 1 3 6 10 11 12 15 16 17 20 25 26 
 27 28 29 32 33 34 35 36 42 43 44 47 
 49 50 
 17 
 3 9 10 11 18 20 22 25 26 27 31 32 
 34 39 42 44 51 
 19 
 6 13 17 18 19 23 24 28 30 31 35 36 
 39 40 41 44 46 49 53 
 48 
 2 3 4 5 6 7 8 9 10 11 12 13 
 14 15 16 17 18 19 20 21 23 24 25 26 
 27 28 29 30 31 32 33 34 35 36 38 39 
 41 42 44 45 46 47 48 49 50 51 52 53 
 5 
 10 16 25 35 40 
 49 
 1 2 4 5 6 7 8 9 10 11 12 13 
 14 15 16 17 18 19 20 22 23 24 25 26 
 27 28 29 30 31 32 33 34 35 36 37 38 
 39 40 41 42 43 44 45 46 47 48 49 50 
 52 
 5 
 4 10 36 39 40 
 39 
 2 3 4 5 6 8 9 10 11 12 13 14 
 15 16 17 20 21 23 24 25 26 27 29 30 
 31 34 36 37 38 39 40 41 42 43 44 46 
 49 51 52 
 4 
 33 36 43 52 
 